p cnf 200 1110
-101 -14 0
-101 50 0
-101 100 0
-101 -84 0
-101 44 0
-101 -87 0
-101 29 0
-101 -71 0
-101 -23 0
-101 17 0
101 14 -50 -100 84 -44 87 -29 71 23 -17 0
-102 -19 0
-102 97 0
-102 34 0
-102 89 0
-102 -27 0
-102 -61 0
-102 -81 0
-102 100 0
-102 15 0
-102 36 0
102 19 -97 -34 -89 27 61 81 -100 -15 -36 0
-103 -29 0
-103 31 0
-103 -60 0
-103 32 0
-103 89 0
-103 1 0
-103 -86 0
-103 59 0
-103 -44 0
-103 64 0
103 29 -31 60 -32 -89 -1 86 -59 44 -64 0
-104 75 0
-104 50 0
-104 89 0
-104 -84 0
-104 -4 0
-104 30 0
-104 -26 0
-104 -98 0
-104 -77 0
-104 -21 0
104 -75 -50 -89 84 4 -30 26 98 77 21 0
-105 -81 0
-105 70 0
-105 -25 0
-105 -57 0
-105 -51 0
-105 53 0
-105 -31 0
-105 -20 0
-105 -82 0
-105 66 0
105 81 -70 25 57 51 -53 31 20 82 -66 0
-106 -18 0
-106 30 0
-106 -94 0
-106 48 0
-106 89 0
-106 -98 0
-106 23 0
-106 -62 0
-106 -19 0
-106 32 0
106 18 -30 94 -48 -89 98 -23 62 19 -32 0
-107 -9 0
-107 66 0
-107 -91 0
-107 -40 0
-107 -48 0
-107 -30 0
-107 25 0
-107 -89 0
-107 84 0
-107 26 0
107 9 -66 91 40 48 30 -25 89 -84 -26 0
-108 -31 0
-108 -46 0
-108 -1 0
-108 47 0
-108 -84 0
-108 16 0
-108 99 0
-108 60 0
-108 -96 0
-108 29 0
108 31 46 1 -47 84 -16 -99 -60 96 -29 0
-109 -50 0
-109 -21 0
-109 97 0
-109 10 0
-109 -43 0
-109 -18 0
-109 -67 0
-109 22 0
-109 17 0
-109 52 0
109 50 21 -97 -10 43 18 67 -22 -17 -52 0
-110 8 0
-110 -24 0
-110 -100 0
-110 71 0
-110 65 0
-110 56 0
-110 82 0
-110 17 0
-110 -38 0
-110 -2 0
110 -8 24 100 -71 -65 -56 -82 -17 38 2 0
101 102 103 104 105 106 107 108 109 110 0
-111 -65 0
-111 -99 0
-111 -22 0
-111 -18 0
-111 49 0
-111 -77 0
-111 -81 0
-111 -92 0
-111 -16 0
-111 50 0
111 65 99 22 18 -49 77 81 92 16 -50 0
-112 -45 0
-112 -34 0
-112 -11 0
-112 -24 0
-112 -97 0
-112 -6 0
-112 -88 0
-112 -3 0
-112 -41 0
-112 -93 0
112 45 34 11 24 97 6 88 3 41 93 0
-113 86 0
-113 -79 0
-113 -9 0
-113 -42 0
-113 -38 0
-113 -6 0
-113 -77 0
-113 17 0
-113 43 0
-113 39 0
113 -86 79 9 42 38 6 77 -17 -43 -39 0
-114 83 0
-114 -44 0
-114 -6 0
-114 -47 0
-114 8 0
-114 -13 0
-114 -26 0
-114 -11 0
-114 -17 0
-114 53 0
114 -83 44 6 47 -8 13 26 11 17 -53 0
-115 53 0
-115 31 0
-115 -71 0
-115 14 0
-115 9 0
-115 -12 0
-115 -67 0
-115 18 0
-115 -59 0
-115 70 0
115 -53 -31 71 -14 -9 12 67 -18 59 -70 0
-116 90 0
-116 -5 0
-116 7 0
-116 3 0
-116 61 0
-116 70 0
-116 53 0
-116 -78 0
-116 86 0
-116 -38 0
116 -90 5 -7 -3 -61 -70 -53 78 -86 38 0
-117 -52 0
-117 68 0
-117 21 0
-117 43 0
-117 19 0
-117 42 0
-117 31 0
-117 94 0
-117 -15 0
-117 -25 0
117 52 -68 -21 -43 -19 -42 -31 -94 15 25 0
-118 74 0
-118 -69 0
-118 -85 0
-118 -91 0
-118 -15 0
-118 -45 0
-118 -14 0
-118 -60 0
-118 61 0
-118 -92 0
118 -74 69 85 91 15 45 14 60 -61 92 0
-119 89 0
-119 26 0
-119 -84 0
-119 83 0
-119 82 0
-119 11 0
-119 99 0
-119 81 0
-119 -3 0
-119 -63 0
119 -89 -26 84 -83 -82 -11 -99 -81 3 63 0
-120 -64 0
-120 -10 0
-120 -1 0
-120 98 0
-120 84 0
-120 52 0
-120 18 0
-120 -94 0
-120 44 0
-120 93 0
120 64 10 1 -98 -84 -52 -18 94 -44 -93 0
111 112 113 114 115 116 117 118 119 120 0
-121 -42 0
-121 82 0
-121 28 0
-121 -90 0
-121 50 0
-121 3 0
-121 -81 0
-121 -59 0
-121 46 0
-121 87 0
121 42 -82 -28 90 -50 -3 81 59 -46 -87 0
-122 -17 0
-122 -100 0
-122 39 0
-122 23 0
-122 -97 0
-122 31 0
-122 16 0
-122 50 0
-122 -57 0
-122 -49 0
122 17 100 -39 -23 97 -31 -16 -50 57 49 0
-123 87 0
-123 70 0
-123 -69 0
-123 -21 0
-123 -94 0
-123 83 0
-123 55 0
-123 81 0
-123 86 0
-123 57 0
123 -87 -70 69 21 94 -83 -55 -81 -86 -57 0
-124 94 0
-124 28 0
-124 80 0
-124 65 0
-124 -89 0
-124 87 0
-124 34 0
-124 88 0
-124 60 0
-124 58 0
124 -94 -28 -80 -65 89 -87 -34 -88 -60 -58 0
-125 -74 0
-125 -31 0
-125 -5 0
-125 29 0
-125 7 0
-125 17 0
-125 64 0
-125 -76 0
-125 -57 0
-125 56 0
125 74 31 5 -29 -7 -17 -64 76 57 -56 0
-126 60 0
-126 56 0
-126 21 0
-126 -47 0
-126 -2 0
-126 20 0
-126 -25 0
-126 80 0
-126 -4 0
-126 -26 0
126 -60 -56 -21 47 2 -20 25 -80 4 26 0
-127 -48 0
-127 -47 0
-127 -80 0
-127 -78 0
-127 32 0
-127 81 0
-127 96 0
-127 86 0
-127 98 0
-127 -6 0
127 48 47 80 78 -32 -81 -96 -86 -98 6 0
-128 -80 0
-128 -47 0
-128 -5 0
-128 15 0
-128 100 0
-128 -24 0
-128 14 0
-128 39 0
-128 37 0
-128 26 0
128 80 47 5 -15 -100 24 -14 -39 -37 -26 0
-129 -57 0
-129 41 0
-129 -59 0
-129 -7 0
-129 6 0
-129 -76 0
-129 -65 0
-129 26 0
-129 60 0
-129 42 0
129 57 -41 59 7 -6 76 65 -26 -60 -42 0
-130 15 0
-130 -92 0
-130 -1 0
-130 82 0
-130 23 0
-130 5 0
-130 -79 0
-130 85 0
-130 -88 0
-130 -3 0
130 -15 92 1 -82 -23 -5 79 -85 88 3 0
121 122 123 124 125 126 127 128 129 130 0
-131 -97 0
-131 -41 0
-131 -81 0
-131 51 0
-131 -74 0
-131 75 0
-131 42 0
-131 9 0
-131 -40 0
-131 -92 0
131 97 41 81 -51 74 -75 -42 -9 40 92 0
-132 34 0
-132 -97 0
-132 -3 0
-132 50 0
-132 -18 0
-132 71 0
-132 6 0
-132 -13 0
-132 80 0
-132 66 0
132 -34 97 3 -50 18 -71 -6 13 -80 -66 0
-133 -71 0
-133 94 0
-133 48 0
-133 -3 0
-133 68 0
-133 -9 0
-133 67 0
-133 56 0
-133 11 0
-133 -14 0
133 71 -94 -48 3 -68 9 -67 -56 -11 14 0
-134 34 0
-134 -98 0
-134 35 0
-134 -83 0
-134 32 0
-134 -39 0
-134 -17 0
-134 -23 0
-134 -63 0
-134 92 0
134 -34 98 -35 83 -32 39 17 23 63 -92 0
-135 79 0
-135 -48 0
-135 -47 0
-135 -39 0
-135 75 0
-135 21 0
-135 -86 0
-135 -61 0
-135 20 0
-135 -41 0
135 -79 48 47 39 -75 -21 86 61 -20 41 0
-136 60 0
-136 49 0
-136 -67 0
-136 -94 0
-136 -55 0
-136 -35 0
-136 27 0
-136 -18 0
-136 68 0
-136 -53 0
136 -60 -49 67 94 55 35 -27 18 -68 53 0
-137 97 0
-137 -65 0
-137 16 0
-137 61 0
-137 -72 0
-137 36 0
-137 8 0
-137 -68 0
-137 -38 0
-137 -95 0
137 -97 65 -16 -61 72 -36 -8 68 38 95 0
-138 45 0
-138 80 0
-138 -21 0
-138 -76 0
-138 52 0
-138 59 0
-138 94 0
-138 -57 0
-138 54 0
-138 -1 0
138 -45 -80 21 76 -52 -59 -94 57 -54 1 0
-139 -20 0
-139 9 0
-139 97 0
-139 -89 0
-139 33 0
-139 87 0
-139 100 0
-139 92 0
-139 -68 0
-139 -48 0
139 20 -9 -97 89 -33 -87 -100 -92 68 48 0
-140 -58 0
-140 -48 0
-140 61 0
-140 69 0
-140 -24 0
-140 98 0
-140 -56 0
-140 -94 0
-140 -53 0
-140 -20 0
140 58 48 -61 -69 24 -98 56 94 53 20 0
131 132 133 134 135 136 137 138 139 140 0
-141 -64 0
-141 -26 0
-141 -57 0
-141 25 0
-141 7 0
-141 23 0
-141 79 0
-141 -94 0
-141 -16 0
-141 -77 0
141 64 26 57 -25 -7 -23 -79 94 16 77 0
-142 -63 0
-142 -33 0
-142 59 0
-142 -79 0
-142 -38 0
-142 -29 0
-142 25 0
-142 52 0
-142 44 0
-142 84 0
142 63 33 -59 79 38 29 -25 -52 -44 -84 0
-143 97 0
-143 -98 0
-143 -54 0
-143 -82 0
-143 -59 0
-143 64 0
-143 50 0
-143 65 0
-143 -51 0
-143 92 0
143 -97 98 54 82 59 -64 -50 -65 51 -92 0
-144 20 0
-144 -24 0
-144 34 0
-144 6 0
-144 10 0
-144 -79 0
-144 -30 0
-144 59 0
-144 -33 0
-144 -76 0
144 -20 24 -34 -6 -10 79 30 -59 33 76 0
-145 66 0
-145 42 0
-145 -46 0
-145 -33 0
-145 76 0
-145 89 0
-145 77 0
-145 -99 0
-145 81 0
-145 -80 0
145 -66 -42 46 33 -76 -89 -77 99 -81 80 0
-146 -88 0
-146 51 0
-146 -64 0
-146 -16 0
-146 -48 0
-146 -80 0
-146 38 0
-146 -49 0
-146 -39 0
-146 -14 0
146 88 -51 64 16 48 80 -38 49 39 14 0
-147 -19 0
-147 -56 0
-147 -8 0
-147 32 0
-147 -15 0
-147 66 0
-147 -17 0
-147 35 0
-147 37 0
-147 99 0
147 19 56 8 -32 15 -66 17 -35 -37 -99 0
-148 -12 0
-148 29 0
-148 75 0
-148 -66 0
-148 -65 0
-148 -38 0
-148 60 0
-148 79 0
-148 -45 0
-148 22 0
148 12 -29 -75 66 65 38 -60 -79 45 -22 0
-149 -52 0
-149 -20 0
-149 -62 0
-149 100 0
-149 -50 0
-149 94 0
-149 -28 0
-149 96 0
-149 -9 0
-149 -78 0
149 52 20 62 -100 50 -94 28 -96 9 78 0
-150 77 0
-150 -1 0
-150 74 0
-150 -88 0
-150 92 0
-150 83 0
-150 39 0
-150 58 0
-150 94 0
-150 -82 0
150 -77 1 -74 88 -92 -83 -39 -58 -94 82 0
141 142 143 144 145 146 147 148 149 150 0
-151 -98 0
-151 87 0
-151 -14 0
-151 -91 0
-151 61 0
-151 26 0
-151 -55 0
-151 63 0
-151 -3 0
-151 -8 0
151 98 -87 14 91 -61 -26 55 -63 3 8 0
-152 -15 0
-152 -40 0
-152 10 0
-152 -88 0
-152 -55 0
-152 -86 0
-152 -65 0
-152 35 0
-152 85 0
-152 -36 0
152 15 40 -10 88 55 86 65 -35 -85 36 0
-153 93 0
-153 -56 0
-153 -62 0
-153 -42 0
-153 92 0
-153 -3 0
-153 26 0
-153 84 0
-153 21 0
-153 -76 0
153 -93 56 62 42 -92 3 -26 -84 -21 76 0
-154 -31 0
-154 96 0
-154 -97 0
-154 -73 0
-154 26 0
-154 28 0
-154 78 0
-154 -33 0
-154 47 0
-154 41 0
154 31 -96 97 73 -26 -28 -78 33 -47 -41 0
-155 92 0
-155 1 0
-155 48 0
-155 -40 0
-155 19 0
-155 -70 0
-155 -51 0
-155 -28 0
-155 -41 0
-155 -29 0
155 -92 -1 -48 40 -19 70 51 28 41 29 0
-156 59 0
-156 -58 0
-156 -54 0
-156 -33 0
-156 78 0
-156 -87 0
-156 74 0
-156 -4 0
-156 62 0
-156 89 0
156 -59 58 54 33 -78 87 -74 4 -62 -89 0
-157 5 0
-157 93 0
-157 47 0
-157 86 0
-157 59 0
-157 2 0
-157 -58 0
-157 -43 0
-157 -39 0
-157 76 0
157 -5 -93 -47 -86 -59 -2 58 43 39 -76 0
-158 100 0
-158 -65 0
-158 19 0
-158 6 0
-158 -35 0
-158 -31 0
-158 -2 0
-158 34 0
-158 -87 0
-158 -33 0
158 -100 65 -19 -6 35 31 2 -34 87 33 0
-159 -73 0
-159 -94 0
-159 82 0
-159 30 0
-159 -34 0
-159 38 0
-159 4 0
-159 67 0
-159 -71 0
-159 12 0
159 73 94 -82 -30 34 -38 -4 -67 71 -12 0
-160 -39 0
-160 -89 0
-160 -88 0
-160 -91 0
-160 92 0
-160 -90 0
-160 -80 0
-160 52 0
-160 23 0
-160 -47 0
160 39 89 88 91 -92 90 80 -52 -23 47 0
151 152 153 154 155 156 157 158 159 160 0
-161 -36 0
-161 54 0
-161 49 0
-161 -38 0
-161 -18 0
-161 -35 0
-161 90 0
-161 100 0
-161 29 0
-161 50 0
161 36 -54 -49 38 18 35 -90 -100 -29 -50 0
-162 27 0
-162 -63 0
-162 -65 0
-162 24 0
-162 -10 0
-162 -62 0
-162 59 0
-162 55 0
-162 -35 0
-162 -31 0
162 -27 63 65 -24 10 62 -59 -55 35 31 0
-163 37 0
-163 -95 0
-163 63 0
-163 -66 0
-163 89 0
-163 85 0
-163 8 0
-163 -9 0
-163 42 0
-163 21 0
163 -37 95 -63 66 -89 -85 -8 9 -42 -21 0
-164 67 0
-164 -23 0
-164 -68 0
-164 73 0
-164 24 0
-164 20 0
-164 76 0
-164 15 0
-164 41 0
-164 -42 0
164 -67 23 68 -73 -24 -20 -76 -15 -41 42 0
-165 -97 0
-165 51 0
-165 -11 0
-165 2 0
-165 -44 0
-165 -1 0
-165 -74 0
-165 15 0
-165 -40 0
-165 -87 0
165 97 -51 11 -2 44 1 74 -15 40 87 0
-166 -25 0
-166 66 0
-166 14 0
-166 -88 0
-166 -63 0
-166 -92 0
-166 98 0
-166 6 0
-166 31 0
-166 -2 0
166 25 -66 -14 88 63 92 -98 -6 -31 2 0
-167 35 0
-167 89 0
-167 -68 0
-167 7 0
-167 47 0
-167 100 0
-167 29 0
-167 -80 0
-167 84 0
-167 -83 0
167 -35 -89 68 -7 -47 -100 -29 80 -84 83 0
-168 22 0
-168 23 0
-168 96 0
-168 11 0
-168 -100 0
-168 -52 0
-168 -5 0
-168 -99 0
-168 -88 0
-168 58 0
168 -22 -23 -96 -11 100 52 5 99 88 -58 0
-169 -85 0
-169 42 0
-169 32 0
-169 23 0
-169 -2 0
-169 -66 0
-169 -84 0
-169 99 0
-169 -58 0
-169 -86 0
169 85 -42 -32 -23 2 66 84 -99 58 86 0
-170 -22 0
-170 -17 0
-170 32 0
-170 96 0
-170 -99 0
-170 29 0
-170 -61 0
-170 68 0
-170 39 0
-170 94 0
170 22 17 -32 -96 99 -29 61 -68 -39 -94 0
161 162 163 164 165 166 167 168 169 170 0
-171 -11 0
-171 -66 0
-171 -80 0
-171 51 0
-171 77 0
-171 56 0
-171 -54 0
-171 -27 0
-171 30 0
-171 -14 0
171 11 66 80 -51 -77 -56 54 27 -30 14 0
-172 -25 0
-172 34 0
-172 -95 0
-172 -76 0
-172 -36 0
-172 61 0
-172 -64 0
-172 -14 0
-172 54 0
-172 -87 0
172 25 -34 95 76 36 -61 64 14 -54 87 0
-173 -24 0
-173 -86 0
-173 97 0
-173 -33 0
-173 83 0
-173 68 0
-173 -70 0
-173 -80 0
-173 -63 0
-173 -99 0
173 24 86 -97 33 -83 -68 70 80 63 99 0
-174 -70 0
-174 -21 0
-174 82 0
-174 -86 0
-174 6 0
-174 -91 0
-174 49 0
-174 92 0
-174 -87 0
-174 63 0
174 70 21 -82 86 -6 91 -49 -92 87 -63 0
-175 -32 0
-175 90 0
-175 -47 0
-175 15 0
-175 -19 0
-175 65 0
-175 82 0
-175 27 0
-175 -61 0
-175 -49 0
175 32 -90 47 -15 19 -65 -82 -27 61 49 0
-176 24 0
-176 87 0
-176 -17 0
-176 58 0
-176 29 0
-176 -18 0
-176 -8 0
-176 -14 0
-176 92 0
-176 -48 0
176 -24 -87 17 -58 -29 18 8 14 -92 48 0
-177 -32 0
-177 40 0
-177 66 0
-177 -64 0
-177 -55 0
-177 -30 0
-177 97 0
-177 34 0
-177 -20 0
-177 36 0
177 32 -40 -66 64 55 30 -97 -34 20 -36 0
-178 -22 0
-178 -2 0
-178 -84 0
-178 35 0
-178 93 0
-178 -70 0
-178 81 0
-178 -58 0
-178 48 0
-178 -72 0
178 22 2 84 -35 -93 70 -81 58 -48 72 0
-179 23 0
-179 -27 0
-179 88 0
-179 73 0
-179 61 0
-179 -6 0
-179 2 0
-179 -62 0
-179 44 0
-179 -24 0
179 -23 27 -88 -73 -61 6 -2 62 -44 24 0
-180 -62 0
-180 94 0
-180 28 0
-180 45 0
-180 63 0
-180 21 0
-180 -56 0
-180 -87 0
-180 49 0
-180 7 0
180 62 -94 -28 -45 -63 -21 56 87 -49 -7 0
171 172 173 174 175 176 177 178 179 180 0
-181 -28 0
-181 -50 0
-181 63 0
-181 -85 0
-181 92 0
-181 67 0
-181 -96 0
-181 69 0
-181 64 0
-181 -82 0
181 28 50 -63 85 -92 -67 96 -69 -64 82 0
-182 -65 0
-182 30 0
-182 2 0
-182 77 0
-182 39 0
-182 -13 0
-182 19 0
-182 62 0
-182 44 0
-182 32 0
182 65 -30 -2 -77 -39 13 -19 -62 -44 -32 0
-183 -16 0
-183 -9 0
-183 -60 0
-183 -98 0
-183 -11 0
-183 47 0
-183 -40 0
-183 38 0
-183 74 0
-183 59 0
183 16 9 60 98 11 -47 40 -38 -74 -59 0
-184 -70 0
-184 -7 0
-184 -96 0
-184 -49 0
-184 -51 0
-184 34 0
-184 -41 0
-184 69 0
-184 42 0
-184 74 0
184 70 7 96 49 51 -34 41 -69 -42 -74 0
-185 26 0
-185 -32 0
-185 -95 0
-185 -34 0
-185 18 0
-185 -19 0
-185 -37 0
-185 -58 0
-185 86 0
-185 5 0
185 -26 32 95 34 -18 19 37 58 -86 -5 0
-186 -59 0
-186 54 0
-186 -60 0
-186 -29 0
-186 -51 0
-186 33 0
-186 67 0
-186 -21 0
-186 85 0
-186 55 0
186 59 -54 60 29 51 -33 -67 21 -85 -55 0
-187 -94 0
-187 79 0
-187 45 0
-187 -11 0
-187 44 0
-187 100 0
-187 28 0
-187 -9 0
-187 10 0
-187 83 0
187 94 -79 -45 11 -44 -100 -28 9 -10 -83 0
-188 54 0
-188 -44 0
-188 -8 0
-188 82 0
-188 74 0
-188 -13 0
-188 -29 0
-188 77 0
-188 -36 0
-188 -69 0
188 -54 44 8 -82 -74 13 29 -77 36 69 0
-189 99 0
-189 28 0
-189 42 0
-189 -82 0
-189 -80 0
-189 -85 0
-189 60 0
-189 -79 0
-189 -46 0
-189 -71 0
189 -99 -28 -42 82 80 85 -60 79 46 71 0
-190 35 0
-190 -75 0
-190 80 0
-190 -84 0
-190 -20 0
-190 61 0
-190 -95 0
-190 51 0
-190 18 0
-190 -58 0
190 -35 75 -80 84 20 -61 95 -51 -18 58 0
181 182 183 184 185 186 187 188 189 190 0
-191 -50 0
-191 -90 0
-191 93 0
-191 -80 0
-191 66 0
-191 95 0
-191 -44 0
-191 51 0
-191 57 0
-191 -6 0
191 50 90 -93 80 -66 -95 44 -51 -57 6 0
-192 51 0
-192 28 0
-192 57 0
-192 -71 0
-192 93 0
-192 -69 0
-192 84 0
-192 20 0
-192 -38 0
-192 -96 0
192 -51 -28 -57 71 -93 69 -84 -20 38 96 0
-193 92 0
-193 -39 0
-193 -37 0
-193 -45 0
-193 52 0
-193 3 0
-193 8 0
-193 51 0
-193 1 0
-193 79 0
193 -92 39 37 45 -52 -3 -8 -51 -1 -79 0
-194 -15 0
-194 -79 0
-194 -2 0
-194 -32 0
-194 89 0
-194 -58 0
-194 13 0
-194 -26 0
-194 17 0
-194 -94 0
194 15 79 2 32 -89 58 -13 26 -17 94 0
-195 -2 0
-195 -84 0
-195 21 0
-195 65 0
-195 -50 0
-195 -59 0
-195 86 0
-195 -89 0
-195 -33 0
-195 39 0
195 2 84 -21 -65 50 59 -86 89 33 -39 0
-196 -65 0
-196 -78 0
-196 94 0
-196 -73 0
-196 -47 0
-196 63 0
-196 71 0
-196 97 0
-196 89 0
-196 -41 0
196 65 78 -94 73 47 -63 -71 -97 -89 41 0
-197 -62 0
-197 49 0
-197 100 0
-197 -5 0
-197 61 0
-197 43 0
-197 -98 0
-197 -70 0
-197 58 0
-197 -82 0
197 62 -49 -100 5 -61 -43 98 70 -58 82 0
-198 87 0
-198 -60 0
-198 67 0
-198 54 0
-198 77 0
-198 85 0
-198 -50 0
-198 -51 0
-198 -91 0
-198 -59 0
198 -87 60 -67 -54 -77 -85 50 51 91 59 0
-199 66 0
-199 -2 0
-199 -73 0
-199 -83 0
-199 68 0
-199 -27 0
-199 -85 0
-199 -60 0
-199 38 0
-199 -51 0
199 -66 2 73 83 -68 27 85 60 -38 51 0
-200 79 0
-200 5 0
-200 -30 0
-200 47 0
-200 54 0
-200 26 0
-200 63 0
-200 14 0
-200 41 0
-200 -64 0
200 -79 -5 30 -47 -54 -26 -63 -14 -41 64 0
191 192 193 194 195 196 197 198 199 200 0
